83 35 47 16 59 72 80 30 62 65 66 94 80 78 13 87 67 62 15 83 79 52 12 70 82 
54 26 64 51 70 28 81 14 35 76 66 78 62 54 25 91 48 27 95 42 95 62 95 76 57 
77 26 57 22 10 32 98 77 43 19 96 11 91 23 45 42 67 67 16 46 21 96 89 67 54 
56 22 28 37 89 17 65 85 10 41 90 52 35 72 85 32 86 43 22 93 95 60 19 58 39 
665
89 33 47 63 31 39 27 66 49 13 87 75 10 85 81 67 12 68 98 89 39 21 16 31 47 
641
71 41 23 44 61 97 27 25 89 59 88 18 37 40 67 82 33 24 74 68 39 73 98 55 34 
683
